NAME nominalQP
ROWS
 N  OBJ
 L  quad_0  
 L  quad_1  
COLUMNS
    C0        OBJ       -1.031
    C0        quad_0    0.464
    C0        quad_1    -0.424
    C1        OBJ       0.403
    C1        quad_0    -1.768
    C2        OBJ       0.4
    C2        quad_0    -2.056
    C2        quad_1    -0.598
    C3        OBJ       0.109
    C4        OBJ       -0.878
    C4        quad_0    -0.663
    C4        quad_1    0.966
    C5        OBJ       -0.138
    C5        quad_0    -2.091
    C5        quad_1    -0.709
    C6        OBJ       0.515
    C6        quad_0    1.442
    C7        OBJ       -0.768
    C7        quad_0    0.125
    C7        quad_1    -1.693
    C8        OBJ       -0.879
    C8        quad_0    1.606
    C8        quad_1    -0.249
    C9        OBJ       0.145
    C9        quad_0    -0.583
    C9        quad_1    -0.02
RHS
    RHS1      OBJ       0.715
    RHS1      quad_0    1.029
    RHS1      quad_1    3.679
BOUNDS
QUADOBJ
    C0        C0        2
    C1        C1        2
    C2        C2        2
    C3        C3        2
    C4        C4        2
    C5        C5        2
    C6        C6        2
    C7        C7        2
    C8        C8        2
    C9        C9        2
QCMATRIX   quad_0  
    C3        C3        1.8928730000000002e+000
QCMATRIX   quad_1  
    C1        C1        1.7091710000000000e+000
    C1        C3        -3.5531999999999997e-001
    C3        C1        -3.5531999999999997e-001
    C1        C6        1.1496839999999999e+000
    C6        C1        1.1496839999999999e+000
    C3        C3        6.2130460000000003e+000
    C3        C6        1.9080920000000001e+000
    C6        C3        1.9080920000000001e+000
    C6        C6        4.3982230000000007e+000
ENDATA
